100 6 100
62 37 8 4 89 90 59 45 23 6 31 79 89 3 66 19 35 36 56 74 93 98 30 5 98 15 88 35 13 51 1 75 40 9 80 29 39 75 75 98 58 7 87 61 73 6 48 61 15 74 7 13 56 12 63 71 53 50 85 56 51 12 96 13 92 77 13 84 52 40 34 62 47 21 75 73 79 76 34 94 50 41 59 59 6 22 82 59 72 19 15 24 32 63 37 24 40 2 60 45 
